
  23    0


   0  16 2 3 4 5 6 8 9 10 11 16 17 18 19 20 21 22 
   4   4 15 14 13 7 
   2   2 15 7 
   8   2 14 7 
  10   2 13 7 
   9   1 7 
  10   1 12 
   3   1 14 
   7   1 13 
   9   1 12 
   2   1 12 
   1   1 23
   5   1 23
   9   1 23
   5   1 23
   1   1 23
   5   1 23
   5   1 23
   3   1 23
   8   1 23
   2   1 23
   8   1 23
   0   0 
